(declare-fun i2 () Int)
(push)
(push)
(push)
(check-sat)
(assert false)
(check-sat)
(pop)
(check-sat)
(check-sat)
(assert false)
(check-sat)
(pop)
(declare-fun v34 () Bool)
(push)
(assert (= v34 (not v34)))
(push)
(push)
(push)
(check-sat)
(check-sat)
(pop)
(pop)
(check-sat)
(pop)
(check-sat)
(pop)
(assert (= 8 i2))
(assert (= 0 i2))
(check-sat)
